c musae-wiki:squirrel: The data was collected from the English Wikipedia (December 2018). https://snap.stanford.edu/data/wikipedia-article-networks.html
p edge 672 759
e 1 2
e 1 157
e 1 181
e 1 479
e 1 116
e 1 660
e 2 394
e 3 4
e 3 171
e 3 120
e 3 587
e 3 616
e 4 550
e 5 6
e 5 221
e 5 360
e 5 115
e 6 282
e 7 8
e 7 81
e 7 268
e 7 515
e 7 26
e 8 255
e 9 10
e 9 17
e 9 321
e 9 468
e 9 205
e 9 300
e 10 76
e 10 24
e 11 12
e 11 182
e 11 425
e 11 661
e 12 401
e 12 514
e 12 627
e 13 14
e 13 124
e 13 614
e 13 589
e 15 16
e 16 185
e 18 19
e 18 233
e 18 154
e 18 342
e 18 563
e 19 386
e 19 373
e 19 238
e 19 134
e 20 21
e 20 22
e 20 299
e 21 243
e 22 23
e 22 84
e 22 125
e 22 237
e 22 341
e 22 405
e 22 76
e 22 573
e 22 621
e 23 215
e 23 254
e 23 130
e 23 558
e 23 628
e 24 25
e 24 217
e 24 289
e 24 148
e 24 488
e 26 27
e 26 42
e 26 149
e 26 224
e 26 261
e 26 506
e 26 523
e 26 526
e 26 589
e 27 140
e 28 29
e 28 319
e 29 393
e 30 31
e 30 568
e 30 602
e 30 246
e 31 195
e 32 33
e 32 585
e 34 35
e 34 277
e 34 278
e 34 505
e 34 537
e 35 97
e 36 37
e 36 302
e 36 361
e 37 147
e 38 39
e 39 93
e 39 153
e 40 41
e 40 144
e 40 376
e 41 255
e 42 279
e 43 44
e 44 97
e 44 498
e 45 46
e 45 72
e 45 163
e 45 346
e 45 497
e 45 520
e 45 522
e 45 556
e 45 232
e 47 48
e 47 155
e 47 179
e 47 99
e 47 670
e 48 187
e 48 110
e 49 50
e 49 343
e 49 422
e 49 535
e 49 132
e 50 310
e 50 328
e 51 52
e 51 148
e 51 569
e 51 361
e 53 54
e 53 61
e 53 179
e 53 235
e 53 513
e 53 524
e 53 553
e 53 613
e 53 665
e 55 56
e 55 78
e 55 190
e 55 219
e 55 246
e 56 410
e 57 58
e 57 145
e 58 115
e 59 60
e 59 73
e 59 138
e 59 363
e 59 101
e 59 436
e 59 551
e 59 590
e 59 215
e 59 623
e 59 156
e 62 63
e 62 262
e 62 271
e 62 438
e 62 375
e 62 509
e 62 536
e 63 286
e 64 65
e 64 78
e 64 125
e 64 512
e 64 607
e 64 465
e 65 123
e 65 85
e 65 333
e 65 385
e 65 496
e 65 507
e 65 518
e 65 544
e 65 571
e 65 194
e 66 67
e 66 110
e 68 69
e 68 130
e 68 158
e 68 200
e 68 644
e 69 342
e 69 424
e 70 71
e 71 355
e 71 356
e 71 564
e 73 640
e 74 75
e 74 446
e 74 474
e 75 247
e 75 513
e 75 100
e 75 459
e 76 77
e 76 155
e 76 478
e 76 82
e 76 245
e 76 419
e 77 205
e 79 80
e 79 309
e 79 314
e 79 119
e 79 546
e 79 398
e 79 669
e 80 148
e 81 314
e 81 429
e 81 575
e 81 140
e 82 83
e 82 116
e 82 329
e 82 445
e 82 591
e 83 663
e 84 209
e 84 471
e 84 491
e 84 457
e 84 543
e 84 617
e 84 184
e 85 86
e 85 139
e 85 414
e 85 492
e 86 164
e 86 312
e 86 657
e 87 88
e 87 225
e 89 90
e 89 194
e 91 92
e 91 314
e 91 268
e 92 347
e 93 94
e 93 105
e 93 151
e 93 311
e 93 372
e 93 485
e 93 160
e 95 96
e 95 133
e 95 339
e 95 366
e 96 443
e 97 98
e 97 410
e 97 322
e 98 342
e 98 283
e 99 100
e 100 371
e 100 596
e 101 102
e 101 205
e 103 104
e 103 145
e 103 553
e 106 107
e 107 131
e 108 109
e 108 114
e 108 263
e 108 291
e 108 145
e 108 489
e 108 494
e 108 450
e 109 490
e 110 111
e 110 276
e 110 478
e 110 653
e 112 113
e 112 366
e 113 205
e 113 136
e 116 150
e 116 174
e 117 118
e 117 525
e 117 584
e 117 639
e 118 498
e 119 120
e 119 237
e 120 643
e 121 122
e 121 234
e 121 288
e 121 579
e 123 283
e 124 416
e 125 200
e 125 266
e 126 127
e 126 138
e 127 218
e 127 592
e 128 129
e 128 141
e 128 488
e 131 132
e 131 237
e 131 374
e 131 572
e 133 238
e 133 200
e 134 135
e 134 156
e 134 352
e 134 176
e 134 487
e 136 137
e 136 529
e 136 431
e 136 631
e 140 549
e 141 270
e 142 143
e 142 481
e 142 231
e 142 542
e 142 209
e 142 254
e 142 627
e 143 424
e 143 220
e 145 146
e 145 212
e 145 261
e 145 341
e 145 205
e 145 527
e 145 671
e 147 379
e 147 483
e 147 500
e 148 387
e 148 399
e 148 181
e 148 521
e 149 412
e 151 152
e 151 324
e 151 204
e 151 388
e 151 407
e 151 440
e 151 517
e 151 595
e 153 154
e 153 262
e 155 428
e 156 203
e 156 415
e 157 205
e 159 160
e 160 417
e 161 162
e 161 396
e 161 606
e 163 167
e 163 290
e 163 340
e 163 434
e 163 560
e 163 635
e 163 449
e 163 672
e 164 251
e 165 166
e 165 313
e 165 308
e 167 184
e 167 204
e 167 349
e 167 457
e 167 214
e 167 630
e 168 169
e 168 246
e 169 568
e 170 171
e 170 531
e 170 579
e 170 522
e 172 173
e 172 486
e 172 445
e 172 262
e 172 201
e 172 311
e 175 176
e 176 285
e 177 178
e 177 327
e 177 589
e 179 242
e 180 181
e 180 525
e 181 283
e 181 336
e 182 183
e 182 226
e 182 188
e 182 557
e 182 510
e 182 612
e 184 380
e 185 186
e 185 389
e 185 368
e 185 482
e 185 559
e 186 287
e 186 651
e 188 189
e 188 550
e 190 580
e 191 192
e 191 216
e 191 368
e 191 442
e 191 633
e 191 193
e 193 194
e 193 239
e 193 528
e 193 392
e 194 301
e 194 398
e 194 490
e 194 449
e 195 435
e 195 565
e 195 471
e 196 197
e 196 434
e 198 199
e 198 618
e 198 365
e 200 430
e 200 559
e 200 309
e 201 202
e 201 216
e 201 298
e 201 355
e 201 561
e 201 400
e 201 646
e 203 504
e 205 206
e 205 501
e 205 583
e 205 598
e 205 600
e 205 309
e 207 208
e 207 334
e 207 550
e 210 211
e 210 462
e 210 269
e 213 214
e 214 533
e 216 455
e 216 302
e 216 552
e 216 593
e 216 662
e 218 502
e 219 304
e 219 461
e 220 221
e 220 320
e 220 273
e 221 433
e 221 254
e 221 249
e 221 555
e 222 223
e 222 340
e 222 261
e 222 601
e 225 294
e 226 490
e 227 228
e 227 315
e 227 330
e 227 375
e 227 439
e 227 493
e 227 538
e 227 594
e 227 348
e 229 230
e 229 464
e 229 373
e 229 560
e 229 622
e 231 232
e 231 358
e 231 364
e 234 253
e 234 288
e 234 317
e 234 539
e 234 541
e 234 409
e 235 236
e 235 275
e 235 284
e 235 294
e 235 599
e 235 432
e 238 482
e 240 241
e 240 318
e 240 554
e 243 508
e 243 655
e 244 245
e 244 420
e 244 424
e 244 530
e 244 449
e 247 248
e 247 454
e 247 588
e 247 625
e 247 649
e 249 250
e 249 377
e 249 260
e 251 252
e 253 458
e 255 256
e 255 547
e 256 316
e 257 258
e 257 269
e 257 466
e 257 618
e 258 415
e 259 260
e 259 392
e 259 658
e 261 369
e 261 452
e 264 265
e 264 378
e 264 475
e 264 368
e 264 576
e 264 358
e 266 267
e 266 465
e 268 367
e 270 406
e 270 419
e 270 451
e 270 545
e 270 641
e 272 273
e 273 373
e 274 275
e 276 323
e 278 344
e 280 281
e 281 416
e 282 283
e 282 440
e 282 619
e 283 477
e 283 559
e 283 302
e 285 359
e 285 503
e 285 567
e 285 524
e 286 532
e 287 527
e 288 350
e 292 293
e 292 370
e 292 397
e 294 295
e 294 303
e 294 581
e 296 297
e 296 453
e 296 472
e 300 301
e 301 413
e 305 306
e 305 357
e 305 417
e 305 426
e 305 480
e 306 400
e 307 308
e 308 322
e 308 502
e 308 597
e 308 335
e 308 652
e 312 331
e 314 511
e 316 610
e 318 319
e 318 476
e 321 336
e 323 365
e 323 548
e 325 326
e 325 335
e 325 338
e 325 664
e 327 519
e 328 329
e 328 566
e 328 626
e 331 332
e 331 404
e 334 456
e 335 348
e 336 337
e 336 411
e 336 441
e 336 540
e 344 345
e 344 495
e 344 543
e 344 624
e 348 403
e 350 351
e 353 354
e 353 384
e 353 409
e 353 530
e 356 424
e 359 632
e 361 362
e 361 463
e 361 527
e 361 470
e 361 578
e 361 645
e 366 467
e 368 642
e 371 460
e 373 445
e 373 510
e 376 416
e 376 472
e 380 381
e 380 390
e 380 397
e 380 574
e 380 586
e 380 518
e 381 400
e 382 383
e 382 423
e 382 427
e 382 497
e 382 562
e 382 582
e 385 604
e 391 392
e 391 395
e 391 437
e 391 516
e 393 394
e 393 570
e 393 585
e 393 451
e 398 399
e 398 457
e 400 421
e 400 473
e 400 480
e 400 577
e 401 402
e 401 484
e 401 636
e 401 606
e 407 408
e 407 603
e 413 418
e 431 432
e 443 444
e 447 448
e 447 519
e 449 450
e 449 525
e 455 638
e 457 608
e 458 634
e 458 656
e 459 460
e 463 520
e 469 470
e 472 565
e 474 609
e 477 667
e 489 620
e 489 654
e 489 659
e 490 615
e 497 629
e 498 499
e 498 630
e 498 647
e 513 666
e 533 534
e 536 593
e 550 627
e 555 611
e 604 605
e 609 650
e 635 648
e 637 638
e 649 668
l 252
t 162 241
